\ Model team10_sensitivity_model
\ LP format - for model browsing. Use MPS format to capture full model detail.
Minimize
  1500 w[0,L1,P1] + 1200 w[0,L2,P2] + 3000 w[0,L2,P3] + 1500 w[1,L1,P1]
   + 1200 w[1,L2,P2] + 3000 w[1,L2,P3] + 1500 w[2,L1,P1] + 1200 w[2,L2,P2]
   + 3000 w[2,L2,P3] + 1500 w[3,L1,P1] + 1200 w[3,L2,P2] + 3000 w[3,L2,P3]
   + 1500 w[4,L1,P1] + 1200 w[4,L2,P2] + 3000 w[4,L2,P3] + 1500 w[5,L1,P1]
   + 1200 w[5,L2,P2] + 3000 w[5,L2,P3] + 1500 w[6,L1,P1] + 1200 w[6,L2,P2]
   + 3000 w[6,L2,P3] + 1500 w[7,L1,P1] + 1200 w[7,L2,P2] + 3000 w[7,L2,P3]
   + 1500 w[8,L1,P1] + 1200 w[8,L2,P2] + 3000 w[8,L2,P3] + 1500 w[9,L1,P1]
   + 1200 w[9,L2,P2] + 3000 w[9,L2,P3] + 1500 w[10,L1,P1]
   + 1200 w[10,L2,P2] + 3000 w[10,L2,P3] + 1995 x[0,L1,P1]
   + 1596 x[0,L2,P2] + 3990 x[0,L2,P3] + 1995 x[1,L1,P1] + 1596 x[1,L2,P2]
   + 3990 x[1,L2,P3] + 1995 x[2,L1,P1] + 1596 x[2,L2,P2] + 3990 x[2,L2,P3]
   + 1995 x[3,L1,P1] + 1596 x[3,L2,P2] + 3990 x[3,L2,P3] + 1995 x[4,L1,P1]
   + 1596 x[4,L2,P2] + 3990 x[4,L2,P3] + 1995 x[5,L1,P1] + 1596 x[5,L2,P2]
   + 3990 x[5,L2,P3] + 1995 x[6,L1,P1] + 1596 x[6,L2,P2] + 3990 x[6,L2,P3]
   + 1995 x[7,L1,P1] + 1596 x[7,L2,P2] + 3990 x[7,L2,P3] + 1995 x[8,L1,P1]
   + 1596 x[8,L2,P2] + 3990 x[8,L2,P3] + 1995 x[9,L1,P1] + 1596 x[9,L2,P2]
   + 3990 x[9,L2,P3] + 1995 x[10,L1,P1] + 1596 x[10,L2,P2]
   + 3990 x[10,L2,P3] + 10 y[0,L1,P1] + 30 y[0,L2,P2] + 50 y[0,L2,P3]
   + 10 y[1,L1,P1] + 30 y[1,L2,P2] + 50 y[1,L2,P3] + 10 y[2,L1,P1]
   + 30 y[2,L2,P2] + 50 y[2,L2,P3] + 10 y[3,L1,P1] + 30 y[3,L2,P2]
   + 50 y[3,L2,P3] + 10 y[4,L1,P1] + 30 y[4,L2,P2] + 50 y[4,L2,P3]
   + 10 y[5,L1,P1] + 30 y[5,L2,P2] + 50 y[5,L2,P3] + 10 y[6,L1,P1]
   + 30 y[6,L2,P2] + 50 y[6,L2,P3] + 10 y[7,L1,P1] + 30 y[7,L2,P2]
   + 50 y[7,L2,P3] + 10 y[8,L1,P1] + 30 y[8,L2,P2] + 50 y[8,L2,P3]
   + 10 y[9,L1,P1] + 30 y[9,L2,P2] + 50 y[9,L2,P3] + 10 y[10,L1,P1]
   + 30 y[10,L2,P2] + 50 y[10,L2,P3] + 10 z[0,L1,P1] + 30 z[0,L2,P2]
   + 50 z[0,L2,P3] + 10 z[1,L1,P1] + 30 z[1,L2,P2] + 50 z[1,L2,P3]
   + 10 z[2,L1,P1] + 30 z[2,L2,P2] + 50 z[2,L2,P3] + 10 z[3,L1,P1]
   + 30 z[3,L2,P2] + 50 z[3,L2,P3] + 10 z[4,L1,P1] + 30 z[4,L2,P2]
   + 50 z[4,L2,P3] + 10 z[5,L1,P1] + 30 z[5,L2,P2] + 50 z[5,L2,P3]
   + 10 z[6,L1,P1] + 30 z[6,L2,P2] + 50 z[6,L2,P3] + 10 z[7,L1,P1]
   + 30 z[7,L2,P2] + 50 z[7,L2,P3] + 10 z[8,L1,P1] + 30 z[8,L2,P2]
   + 50 z[8,L2,P3] + 10 z[9,L1,P1] + 30 z[9,L2,P2] + 50 z[9,L2,P3]
   + 10 z[10,L1,P1] + 30 z[10,L2,P2] + 50 z[10,L2,P3]
Subject To
 c1_0_L1_P1: - 1e+06 w[0,L1,P1] + y[0,L1,P1] <= 0
 c1_1_L1_P1: - 1e+06 w[1,L1,P1] + y[1,L1,P1] <= 0
 c1_2_L1_P1: - 1e+06 w[2,L1,P1] + y[2,L1,P1] <= 0
 c1_3_L1_P1: - 1e+06 w[3,L1,P1] + y[3,L1,P1] <= 0
 c1_4_L1_P1: - 1e+06 w[4,L1,P1] + y[4,L1,P1] <= 0
 c1_5_L1_P1: - 1e+06 w[5,L1,P1] + y[5,L1,P1] <= 0
 c1_6_L1_P1: - 1e+06 w[6,L1,P1] + y[6,L1,P1] <= 0
 c1_7_L1_P1: - 1e+06 w[7,L1,P1] + y[7,L1,P1] <= 0
 c1_8_L1_P1: - 1e+06 w[8,L1,P1] + y[8,L1,P1] <= 0
 c1_9_L1_P1: - 1e+06 w[9,L1,P1] + y[9,L1,P1] <= 0
 c1_10_L1_P1: - 1e+06 w[10,L1,P1] + y[10,L1,P1] <= 0
 c1_0_L2_P2: - 1e+06 w[0,L2,P2] + y[0,L2,P2] <= 0
 c1_1_L2_P2: - 1e+06 w[1,L2,P2] + y[1,L2,P2] <= 0
 c1_2_L2_P2: - 1e+06 w[2,L2,P2] + y[2,L2,P2] <= 0
 c1_3_L2_P2: - 1e+06 w[3,L2,P2] + y[3,L2,P2] <= 0
 c1_4_L2_P2: - 1e+06 w[4,L2,P2] + y[4,L2,P2] <= 0
 c1_5_L2_P2: - 1e+06 w[5,L2,P2] + y[5,L2,P2] <= 0
 c1_6_L2_P2: - 1e+06 w[6,L2,P2] + y[6,L2,P2] <= 0
 c1_7_L2_P2: - 1e+06 w[7,L2,P2] + y[7,L2,P2] <= 0
 c1_8_L2_P2: - 1e+06 w[8,L2,P2] + y[8,L2,P2] <= 0
 c1_9_L2_P2: - 1e+06 w[9,L2,P2] + y[9,L2,P2] <= 0
 c1_10_L2_P2: - 1e+06 w[10,L2,P2] + y[10,L2,P2] <= 0
 c1_0_L2_P3: - 1e+06 w[0,L2,P3] + y[0,L2,P3] <= 0
 c1_1_L2_P3: - 1e+06 w[1,L2,P3] + y[1,L2,P3] <= 0
 c1_2_L2_P3: - 1e+06 w[2,L2,P3] + y[2,L2,P3] <= 0
 c1_3_L2_P3: - 1e+06 w[3,L2,P3] + y[3,L2,P3] <= 0
 c1_4_L2_P3: - 1e+06 w[4,L2,P3] + y[4,L2,P3] <= 0
 c1_5_L2_P3: - 1e+06 w[5,L2,P3] + y[5,L2,P3] <= 0
 c1_6_L2_P3: - 1e+06 w[6,L2,P3] + y[6,L2,P3] <= 0
 c1_7_L2_P3: - 1e+06 w[7,L2,P3] + y[7,L2,P3] <= 0
 c1_8_L2_P3: - 1e+06 w[8,L2,P3] + y[8,L2,P3] <= 0
 c1_9_L2_P3: - 1e+06 w[9,L2,P3] + y[9,L2,P3] <= 0
 c1_10_L2_P3: - 1e+06 w[10,L2,P3] + y[10,L2,P3] <= 0
 c2_0_L1_P1: - 1e+06 w[0,L1,P1] + z[0,L1,P1] <= 0
 c2_1_L1_P1: - 1e+06 w[1,L1,P1] + z[1,L1,P1] <= 0
 c2_2_L1_P1: - 1e+06 w[2,L1,P1] + z[2,L1,P1] <= 0
 c2_3_L1_P1: - 1e+06 w[3,L1,P1] + z[3,L1,P1] <= 0
 c2_4_L1_P1: - 1e+06 w[4,L1,P1] + z[4,L1,P1] <= 0
 c2_5_L1_P1: - 1e+06 w[5,L1,P1] + z[5,L1,P1] <= 0
 c2_6_L1_P1: - 1e+06 w[6,L1,P1] + z[6,L1,P1] <= 0
 c2_7_L1_P1: - 1e+06 w[7,L1,P1] + z[7,L1,P1] <= 0
 c2_8_L1_P1: - 1e+06 w[8,L1,P1] + z[8,L1,P1] <= 0
 c2_9_L1_P1: - 1e+06 w[9,L1,P1] + z[9,L1,P1] <= 0
 c2_10_L1_P1: - 1e+06 w[10,L1,P1] + z[10,L1,P1] <= 0
 c2_0_L2_P2: - 1e+06 w[0,L2,P2] + z[0,L2,P2] <= 0
 c2_1_L2_P2: - 1e+06 w[1,L2,P2] + z[1,L2,P2] <= 0
 c2_2_L2_P2: - 1e+06 w[2,L2,P2] + z[2,L2,P2] <= 0
 c2_3_L2_P2: - 1e+06 w[3,L2,P2] + z[3,L2,P2] <= 0
 c2_4_L2_P2: - 1e+06 w[4,L2,P2] + z[4,L2,P2] <= 0
 c2_5_L2_P2: - 1e+06 w[5,L2,P2] + z[5,L2,P2] <= 0
 c2_6_L2_P2: - 1e+06 w[6,L2,P2] + z[6,L2,P2] <= 0
 c2_7_L2_P2: - 1e+06 w[7,L2,P2] + z[7,L2,P2] <= 0
 c2_8_L2_P2: - 1e+06 w[8,L2,P2] + z[8,L2,P2] <= 0
 c2_9_L2_P2: - 1e+06 w[9,L2,P2] + z[9,L2,P2] <= 0
 c2_10_L2_P2: - 1e+06 w[10,L2,P2] + z[10,L2,P2] <= 0
 c2_0_L2_P3: - 1e+06 w[0,L2,P3] + z[0,L2,P3] <= 0
 c2_1_L2_P3: - 1e+06 w[1,L2,P3] + z[1,L2,P3] <= 0
 c2_2_L2_P3: - 1e+06 w[2,L2,P3] + z[2,L2,P3] <= 0
 c2_3_L2_P3: - 1e+06 w[3,L2,P3] + z[3,L2,P3] <= 0
 c2_4_L2_P3: - 1e+06 w[4,L2,P3] + z[4,L2,P3] <= 0
 c2_5_L2_P3: - 1e+06 w[5,L2,P3] + z[5,L2,P3] <= 0
 c2_6_L2_P3: - 1e+06 w[6,L2,P3] + z[6,L2,P3] <= 0
 c2_7_L2_P3: - 1e+06 w[7,L2,P3] + z[7,L2,P3] <= 0
 c2_8_L2_P3: - 1e+06 w[8,L2,P3] + z[8,L2,P3] <= 0
 c2_9_L2_P3: - 1e+06 w[9,L2,P3] + z[9,L2,P3] <= 0
 c2_10_L2_P3: - 1e+06 w[10,L2,P3] + z[10,L2,P3] <= 0
 c3_L1_P1: w[0,L1,P1] + w[1,L1,P1] + w[2,L1,P1] + w[3,L1,P1] + w[4,L1,P1]
   + w[5,L1,P1] + w[6,L1,P1] + w[7,L1,P1] + w[8,L1,P1] + w[9,L1,P1]
   + w[10,L1,P1] <= 5
 c3_L2_P2: w[0,L2,P2] + w[1,L2,P2] + w[2,L2,P2] + w[3,L2,P2] + w[4,L2,P2]
   + w[5,L2,P2] + w[6,L2,P2] + w[7,L2,P2] + w[8,L2,P2] + w[9,L2,P2]
   + w[10,L2,P2] <= 5
 c3_L2_P3: w[0,L2,P3] + w[1,L2,P3] + w[2,L2,P3] + w[3,L2,P3] + w[4,L2,P3]
   + w[5,L2,P3] + w[6,L2,P3] + w[7,L2,P3] + w[8,L2,P3] + w[9,L2,P3]
   + w[10,L2,P3] <= 5
 c4_0: 14 w[0,L1,P1] + 13 w[0,L2,P2] + 17 w[0,L2,P3] <= 30
 c4_1: 14 w[1,L1,P1] + 13 w[1,L2,P2] + 17 w[1,L2,P3] <= 30
 c4_2: 14 w[2,L1,P1] + 13 w[2,L2,P2] + 17 w[2,L2,P3] <= 30
 c4_3: 14 w[3,L1,P1] + 13 w[3,L2,P2] + 17 w[3,L2,P3] <= 30
 c4_4: 14 w[4,L1,P1] + 13 w[4,L2,P2] + 17 w[4,L2,P3] <= 30
 c4_5: 14 w[5,L1,P1] + 13 w[5,L2,P2] + 17 w[5,L2,P3] <= 30
 c4_6: 14 w[6,L1,P1] + 13 w[6,L2,P2] + 17 w[6,L2,P3] <= 30
 c4_7: 14 w[7,L1,P1] + 13 w[7,L2,P2] + 17 w[7,L2,P3] <= 30
 c4_8: 14 w[8,L1,P1] + 13 w[8,L2,P2] + 17 w[8,L2,P3] <= 30
 c4_9: 14 w[9,L1,P1] + 13 w[9,L2,P2] + 17 w[9,L2,P3] <= 30
 c4_10: 14 w[10,L1,P1] + 13 w[10,L2,P2] + 17 w[10,L2,P3] <= 30
 c5.1_0_L2_P2: w[0,L2,P2] + w[1,L2,P3] <= 1
 c5.1_1_L2_P2: w[1,L2,P2] + w[2,L2,P3] <= 1
 c5.1_2_L2_P2: w[2,L2,P2] + w[3,L2,P3] <= 1
 c5.1_3_L2_P2: w[3,L2,P2] + w[4,L2,P3] <= 1
 c5.1_4_L2_P2: w[4,L2,P2] + w[5,L2,P3] <= 1
 c5.1_5_L2_P2: w[5,L2,P2] + w[6,L2,P3] <= 1
 c5.1_6_L2_P2: w[6,L2,P2] + w[7,L2,P3] <= 1
 c5.1_7_L2_P2: w[7,L2,P2] + w[8,L2,P3] <= 1
 c5.1_8_L2_P2: w[8,L2,P2] + w[9,L2,P3] <= 1
 c5.1_9_L2_P2: w[9,L2,P2] + w[10,L2,P3] <= 1
 c5.2_0_L2_P3: w[0,L2,P3] + w[1,L2,P2] <= 1
 c5.2_1_L2_P3: w[1,L2,P3] + w[2,L2,P2] <= 1
 c5.2_2_L2_P3: w[2,L2,P3] + w[3,L2,P2] <= 1
 c5.2_3_L2_P3: w[3,L2,P3] + w[4,L2,P2] <= 1
 c5.2_4_L2_P3: w[4,L2,P3] + w[5,L2,P2] <= 1
 c5.2_5_L2_P3: w[5,L2,P3] + w[6,L2,P2] <= 1
 c5.2_6_L2_P3: w[6,L2,P3] + w[7,L2,P2] <= 1
 c5.2_7_L2_P3: w[7,L2,P3] + w[8,L2,P2] <= 1
 c5.2_8_L2_P3: w[8,L2,P3] + w[9,L2,P2] <= 1
 c5.2_9_L2_P3: w[9,L2,P3] + w[10,L2,P2] <= 1
 c6_0: w[0,L2,P2] + w[0,L2,P3] <= 1
 c6_1: w[1,L2,P2] + w[1,L2,P3] <= 1
 c6_2: w[2,L2,P2] + w[2,L2,P3] <= 1
 c6_3: w[3,L2,P2] + w[3,L2,P3] <= 1
 c6_4: w[4,L2,P2] + w[4,L2,P3] <= 1
 c6_5: w[5,L2,P2] + w[5,L2,P3] <= 1
 c6_6: w[6,L2,P2] + w[6,L2,P3] <= 1
 c6_7: w[7,L2,P2] + w[7,L2,P3] <= 1
 c6_8: w[8,L2,P2] + w[8,L2,P3] <= 1
 c6_9: w[9,L2,P2] + w[9,L2,P3] <= 1
 c6_10: w[10,L2,P2] + w[10,L2,P3] <= 1
 c7_L1_P1: y[0,L1,P1] + y[1,L1,P1] + y[2,L1,P1] + y[3,L1,P1] + y[4,L1,P1]
   + y[5,L1,P1] + y[6,L1,P1] + y[7,L1,P1] + y[8,L1,P1] + y[9,L1,P1]
   + y[10,L1,P1] + z[0,L1,P1] + z[1,L1,P1] + z[2,L1,P1] + z[3,L1,P1]
   + z[4,L1,P1] + z[5,L1,P1] + z[6,L1,P1] + z[7,L1,P1] + z[8,L1,P1]
   + z[9,L1,P1] + z[10,L1,P1] >= 22200
 c7_L2_P2: y[0,L2,P2] + y[1,L2,P2] + y[2,L2,P2] + y[3,L2,P2] + y[4,L2,P2]
   + y[5,L2,P2] + y[6,L2,P2] + y[7,L2,P2] + y[8,L2,P2] + y[9,L2,P2]
   + y[10,L2,P2] + z[0,L2,P2] + z[1,L2,P2] + z[2,L2,P2] + z[3,L2,P2]
   + z[4,L2,P2] + z[5,L2,P2] + z[6,L2,P2] + z[7,L2,P2] + z[8,L2,P2]
   + z[9,L2,P2] + z[10,L2,P2] >= 17500
 c7_L2_P3: y[0,L2,P3] + y[1,L2,P3] + y[2,L2,P3] + y[3,L2,P3] + y[4,L2,P3]
   + y[5,L2,P3] + y[6,L2,P3] + y[7,L2,P3] + y[8,L2,P3] + y[9,L2,P3]
   + y[10,L2,P3] + z[0,L2,P3] + z[1,L2,P3] + z[2,L2,P3] + z[3,L2,P3]
   + z[4,L2,P3] + z[5,L2,P3] + z[6,L2,P3] + z[7,L2,P3] + z[8,L2,P3]
   + z[9,L2,P3] + z[10,L2,P3] >= 11500
 c8_0_L1_P1: - 6600 w[0,L1,P1] + y[0,L1,P1] <= 0
 c8_1_L1_P1: - 6600 w[1,L1,P1] + y[1,L1,P1] <= 0
 c8_2_L1_P1: - 6600 w[2,L1,P1] + y[2,L1,P1] <= 0
 c8_3_L1_P1: - 6600 w[3,L1,P1] + y[3,L1,P1] <= 0
 c8_4_L1_P1: - 6600 w[4,L1,P1] + y[4,L1,P1] <= 0
 c8_5_L1_P1: - 6600 w[5,L1,P1] + y[5,L1,P1] <= 0
 c8_6_L1_P1: - 6600 w[6,L1,P1] + y[6,L1,P1] <= 0
 c8_7_L1_P1: - 6600 w[7,L1,P1] + y[7,L1,P1] <= 0
 c8_8_L1_P1: - 6600 w[8,L1,P1] + y[8,L1,P1] <= 0
 c8_9_L1_P1: - 6600 w[9,L1,P1] + y[9,L1,P1] <= 0
 c8_10_L1_P1: - 6600 w[10,L1,P1] + y[10,L1,P1] <= 0
 c8_0_L2_P2: - 5250 w[0,L2,P2] + y[0,L2,P2] <= 0
 c8_1_L2_P2: - 5250 w[1,L2,P2] + y[1,L2,P2] <= 0
 c8_2_L2_P2: - 5250 w[2,L2,P2] + y[2,L2,P2] <= 0
 c8_3_L2_P2: - 5250 w[3,L2,P2] + y[3,L2,P2] <= 0
 c8_4_L2_P2: - 5250 w[4,L2,P2] + y[4,L2,P2] <= 0
 c8_5_L2_P2: - 5250 w[5,L2,P2] + y[5,L2,P2] <= 0
 c8_6_L2_P2: - 5250 w[6,L2,P2] + y[6,L2,P2] <= 0
 c8_7_L2_P2: - 5250 w[7,L2,P2] + y[7,L2,P2] <= 0
 c8_8_L2_P2: - 5250 w[8,L2,P2] + y[8,L2,P2] <= 0
 c8_9_L2_P2: - 5250 w[9,L2,P2] + y[9,L2,P2] <= 0
 c8_10_L2_P2: - 5250 w[10,L2,P2] + y[10,L2,P2] <= 0
 c8_0_L2_P3: - 3450 w[0,L2,P3] + y[0,L2,P3] <= 0
 c8_1_L2_P3: - 3450 w[1,L2,P3] + y[1,L2,P3] <= 0
 c8_2_L2_P3: - 3450 w[2,L2,P3] + y[2,L2,P3] <= 0
 c8_3_L2_P3: - 3450 w[3,L2,P3] + y[3,L2,P3] <= 0
 c8_4_L2_P3: - 3450 w[4,L2,P3] + y[4,L2,P3] <= 0
 c8_5_L2_P3: - 3450 w[5,L2,P3] + y[5,L2,P3] <= 0
 c8_6_L2_P3: - 3450 w[6,L2,P3] + y[6,L2,P3] <= 0
 c8_7_L2_P3: - 3450 w[7,L2,P3] + y[7,L2,P3] <= 0
 c8_8_L2_P3: - 3450 w[8,L2,P3] + y[8,L2,P3] <= 0
 c8_9_L2_P3: - 3450 w[9,L2,P3] + y[9,L2,P3] <= 0
 c8_10_L2_P3: - 3450 w[10,L2,P3] + y[10,L2,P3] <= 0
 c9_0_L1_P1: - 550 x[0,L1,P1] + z[0,L1,P1] <= 0
 c9_1_L1_P1: - 550 x[1,L1,P1] + z[1,L1,P1] <= 0
 c9_2_L1_P1: - 550 x[2,L1,P1] + z[2,L1,P1] <= 0
 c9_3_L1_P1: - 550 x[3,L1,P1] + z[3,L1,P1] <= 0
 c9_4_L1_P1: - 550 x[4,L1,P1] + z[4,L1,P1] <= 0
 c9_5_L1_P1: - 550 x[5,L1,P1] + z[5,L1,P1] <= 0
 c9_6_L1_P1: - 550 x[6,L1,P1] + z[6,L1,P1] <= 0
 c9_7_L1_P1: - 550 x[7,L1,P1] + z[7,L1,P1] <= 0
 c9_8_L1_P1: - 550 x[8,L1,P1] + z[8,L1,P1] <= 0
 c9_9_L1_P1: - 550 x[9,L1,P1] + z[9,L1,P1] <= 0
 c9_10_L1_P1: - 550 x[10,L1,P1] + z[10,L1,P1] <= 0
 c9_0_L2_P2: - 438 x[0,L2,P2] + z[0,L2,P2] <= 0
 c9_1_L2_P2: - 438 x[1,L2,P2] + z[1,L2,P2] <= 0
 c9_2_L2_P2: - 438 x[2,L2,P2] + z[2,L2,P2] <= 0
 c9_3_L2_P2: - 438 x[3,L2,P2] + z[3,L2,P2] <= 0
 c9_4_L2_P2: - 438 x[4,L2,P2] + z[4,L2,P2] <= 0
 c9_5_L2_P2: - 438 x[5,L2,P2] + z[5,L2,P2] <= 0
 c9_6_L2_P2: - 438 x[6,L2,P2] + z[6,L2,P2] <= 0
 c9_7_L2_P2: - 438 x[7,L2,P2] + z[7,L2,P2] <= 0
 c9_8_L2_P2: - 438 x[8,L2,P2] + z[8,L2,P2] <= 0
 c9_9_L2_P2: - 438 x[9,L2,P2] + z[9,L2,P2] <= 0
 c9_10_L2_P2: - 438 x[10,L2,P2] + z[10,L2,P2] <= 0
 c9_0_L2_P3: - 288 x[0,L2,P3] + z[0,L2,P3] <= 0
 c9_1_L2_P3: - 288 x[1,L2,P3] + z[1,L2,P3] <= 0
 c9_2_L2_P3: - 288 x[2,L2,P3] + z[2,L2,P3] <= 0
 c9_3_L2_P3: - 288 x[3,L2,P3] + z[3,L2,P3] <= 0
 c9_4_L2_P3: - 288 x[4,L2,P3] + z[4,L2,P3] <= 0
 c9_5_L2_P3: - 288 x[5,L2,P3] + z[5,L2,P3] <= 0
 c9_6_L2_P3: - 288 x[6,L2,P3] + z[6,L2,P3] <= 0
 c9_7_L2_P3: - 288 x[7,L2,P3] + z[7,L2,P3] <= 0
 c9_8_L2_P3: - 288 x[8,L2,P3] + z[8,L2,P3] <= 0
 c9_9_L2_P3: - 288 x[9,L2,P3] + z[9,L2,P3] <= 0
 c9_10_L2_P3: - 288 x[10,L2,P3] + z[10,L2,P3] <= 0
 c10_0_L1_P1: - 53 w[0,L1,P1] + y[0,L1,P1] >= 0
 c10_1_L1_P1: - 53 w[1,L1,P1] + y[1,L1,P1] >= 0
 c10_2_L1_P1: - 53 w[2,L1,P1] + y[2,L1,P1] >= 0
 c10_3_L1_P1: - 53 w[3,L1,P1] + y[3,L1,P1] >= 0
 c10_4_L1_P1: - 53 w[4,L1,P1] + y[4,L1,P1] >= 0
 c10_5_L1_P1: - 53 w[5,L1,P1] + y[5,L1,P1] >= 0
 c10_6_L1_P1: - 53 w[6,L1,P1] + y[6,L1,P1] >= 0
 c10_7_L1_P1: - 53 w[7,L1,P1] + y[7,L1,P1] >= 0
 c10_8_L1_P1: - 53 w[8,L1,P1] + y[8,L1,P1] >= 0
 c10_9_L1_P1: - 53 w[9,L1,P1] + y[9,L1,P1] >= 0
 c10_10_L1_P1: - 53 w[10,L1,P1] + y[10,L1,P1] >= 0
 c10_0_L2_P2: - 124 w[0,L2,P2] + y[0,L2,P2] >= 0
 c10_1_L2_P2: - 124 w[1,L2,P2] + y[1,L2,P2] >= 0
 c10_2_L2_P2: - 124 w[2,L2,P2] + y[2,L2,P2] >= 0
 c10_3_L2_P2: - 124 w[3,L2,P2] + y[3,L2,P2] >= 0
 c10_4_L2_P2: - 124 w[4,L2,P2] + y[4,L2,P2] >= 0
 c10_5_L2_P2: - 124 w[5,L2,P2] + y[5,L2,P2] >= 0
 c10_6_L2_P2: - 124 w[6,L2,P2] + y[6,L2,P2] >= 0
 c10_7_L2_P2: - 124 w[7,L2,P2] + y[7,L2,P2] >= 0
 c10_8_L2_P2: - 124 w[8,L2,P2] + y[8,L2,P2] >= 0
 c10_9_L2_P2: - 124 w[9,L2,P2] + y[9,L2,P2] >= 0
 c10_10_L2_P2: - 124 w[10,L2,P2] + y[10,L2,P2] >= 0
 c10_0_L2_P3: - 128 w[0,L2,P3] + y[0,L2,P3] >= 0
 c10_1_L2_P3: - 128 w[1,L2,P3] + y[1,L2,P3] >= 0
 c10_2_L2_P3: - 128 w[2,L2,P3] + y[2,L2,P3] >= 0
 c10_3_L2_P3: - 128 w[3,L2,P3] + y[3,L2,P3] >= 0
 c10_4_L2_P3: - 128 w[4,L2,P3] + y[4,L2,P3] >= 0
 c10_5_L2_P3: - 128 w[5,L2,P3] + y[5,L2,P3] >= 0
 c10_6_L2_P3: - 128 w[6,L2,P3] + y[6,L2,P3] >= 0
 c10_7_L2_P3: - 128 w[7,L2,P3] + y[7,L2,P3] >= 0
 c10_8_L2_P3: - 128 w[8,L2,P3] + y[8,L2,P3] >= 0
 c10_9_L2_P3: - 128 w[9,L2,P3] + y[9,L2,P3] >= 0
 c10_10_L2_P3: - 128 w[10,L2,P3] + y[10,L2,P3] >= 0
 c11_0_L1_P1: - 53 x[0,L1,P1] + z[0,L1,P1] >= 0
 c11_1_L1_P1: - 53 x[1,L1,P1] + z[1,L1,P1] >= 0
 c11_2_L1_P1: - 53 x[2,L1,P1] + z[2,L1,P1] >= 0
 c11_3_L1_P1: - 53 x[3,L1,P1] + z[3,L1,P1] >= 0
 c11_4_L1_P1: - 53 x[4,L1,P1] + z[4,L1,P1] >= 0
 c11_5_L1_P1: - 53 x[5,L1,P1] + z[5,L1,P1] >= 0
 c11_6_L1_P1: - 53 x[6,L1,P1] + z[6,L1,P1] >= 0
 c11_7_L1_P1: - 53 x[7,L1,P1] + z[7,L1,P1] >= 0
 c11_8_L1_P1: - 53 x[8,L1,P1] + z[8,L1,P1] >= 0
 c11_9_L1_P1: - 53 x[9,L1,P1] + z[9,L1,P1] >= 0
 c11_10_L1_P1: - 53 x[10,L1,P1] + z[10,L1,P1] >= 0
 c11_0_L2_P2: - 124 x[0,L2,P2] + z[0,L2,P2] >= 0
 c11_1_L2_P2: - 124 x[1,L2,P2] + z[1,L2,P2] >= 0
 c11_2_L2_P2: - 124 x[2,L2,P2] + z[2,L2,P2] >= 0
 c11_3_L2_P2: - 124 x[3,L2,P2] + z[3,L2,P2] >= 0
 c11_4_L2_P2: - 124 x[4,L2,P2] + z[4,L2,P2] >= 0
 c11_5_L2_P2: - 124 x[5,L2,P2] + z[5,L2,P2] >= 0
 c11_6_L2_P2: - 124 x[6,L2,P2] + z[6,L2,P2] >= 0
 c11_7_L2_P2: - 124 x[7,L2,P2] + z[7,L2,P2] >= 0
 c11_8_L2_P2: - 124 x[8,L2,P2] + z[8,L2,P2] >= 0
 c11_9_L2_P2: - 124 x[9,L2,P2] + z[9,L2,P2] >= 0
 c11_10_L2_P2: - 124 x[10,L2,P2] + z[10,L2,P2] >= 0
 c11_0_L2_P3: - 128 x[0,L2,P3] + z[0,L2,P3] >= 0
 c11_1_L2_P3: - 128 x[1,L2,P3] + z[1,L2,P3] >= 0
 c11_2_L2_P3: - 128 x[2,L2,P3] + z[2,L2,P3] >= 0
 c11_3_L2_P3: - 128 x[3,L2,P3] + z[3,L2,P3] >= 0
 c11_4_L2_P3: - 128 x[4,L2,P3] + z[4,L2,P3] >= 0
 c11_5_L2_P3: - 128 x[5,L2,P3] + z[5,L2,P3] >= 0
 c11_6_L2_P3: - 128 x[6,L2,P3] + z[6,L2,P3] >= 0
 c11_7_L2_P3: - 128 x[7,L2,P3] + z[7,L2,P3] >= 0
 c11_8_L2_P3: - 128 x[8,L2,P3] + z[8,L2,P3] >= 0
 c11_9_L2_P3: - 128 x[9,L2,P3] + z[9,L2,P3] >= 0
 c11_10_L2_P3: - 128 x[10,L2,P3] + z[10,L2,P3] >= 0
 c12_0_L1_P1: - w[0,L1,P1] + x[0,L1,P1] <= 0
 c12_1_L1_P1: - w[1,L1,P1] + x[1,L1,P1] <= 0
 c12_2_L1_P1: - w[2,L1,P1] + x[2,L1,P1] <= 0
 c12_3_L1_P1: - w[3,L1,P1] + x[3,L1,P1] <= 0
 c12_4_L1_P1: - w[4,L1,P1] + x[4,L1,P1] <= 0
 c12_5_L1_P1: - w[5,L1,P1] + x[5,L1,P1] <= 0
 c12_6_L1_P1: - w[6,L1,P1] + x[6,L1,P1] <= 0
 c12_7_L1_P1: - w[7,L1,P1] + x[7,L1,P1] <= 0
 c12_8_L1_P1: - w[8,L1,P1] + x[8,L1,P1] <= 0
 c12_9_L1_P1: - w[9,L1,P1] + x[9,L1,P1] <= 0
 c12_10_L1_P1: - w[10,L1,P1] + x[10,L1,P1] <= 0
 c12_0_L2_P2: - w[0,L2,P2] + x[0,L2,P2] <= 0
 c12_1_L2_P2: - w[1,L2,P2] + x[1,L2,P2] <= 0
 c12_2_L2_P2: - w[2,L2,P2] + x[2,L2,P2] <= 0
 c12_3_L2_P2: - w[3,L2,P2] + x[3,L2,P2] <= 0
 c12_4_L2_P2: - w[4,L2,P2] + x[4,L2,P2] <= 0
 c12_5_L2_P2: - w[5,L2,P2] + x[5,L2,P2] <= 0
 c12_6_L2_P2: - w[6,L2,P2] + x[6,L2,P2] <= 0
 c12_7_L2_P2: - w[7,L2,P2] + x[7,L2,P2] <= 0
 c12_8_L2_P2: - w[8,L2,P2] + x[8,L2,P2] <= 0
 c12_9_L2_P2: - w[9,L2,P2] + x[9,L2,P2] <= 0
 c12_10_L2_P2: - w[10,L2,P2] + x[10,L2,P2] <= 0
 c12_0_L2_P3: - w[0,L2,P3] + x[0,L2,P3] <= 0
 c12_1_L2_P3: - w[1,L2,P3] + x[1,L2,P3] <= 0
 c12_2_L2_P3: - w[2,L2,P3] + x[2,L2,P3] <= 0
 c12_3_L2_P3: - w[3,L2,P3] + x[3,L2,P3] <= 0
 c12_4_L2_P3: - w[4,L2,P3] + x[4,L2,P3] <= 0
 c12_5_L2_P3: - w[5,L2,P3] + x[5,L2,P3] <= 0
 c12_6_L2_P3: - w[6,L2,P3] + x[6,L2,P3] <= 0
 c12_7_L2_P3: - w[7,L2,P3] + x[7,L2,P3] <= 0
 c12_8_L2_P3: - w[8,L2,P3] + x[8,L2,P3] <= 0
 c12_9_L2_P3: - w[9,L2,P3] + x[9,L2,P3] <= 0
 c12_10_L2_P3: - w[10,L2,P3] + x[10,L2,P3] <= 0
 R279: - 10 y[0,L1,P1] - 30 y[0,L2,P2] - 50 y[0,L2,P3] - 10 y[1,L1,P1]
   - 30 y[1,L2,P2] - 50 y[1,L2,P3] - 10 y[2,L1,P1] - 30 y[2,L2,P2]
   - 50 y[2,L2,P3] - 10 y[3,L1,P1] - 30 y[3,L2,P2] - 50 y[3,L2,P3]
   - 10 y[4,L1,P1] - 30 y[4,L2,P2] - 50 y[4,L2,P3] - 10 y[5,L1,P1]
   - 30 y[5,L2,P2] - 50 y[5,L2,P3] - 10 y[6,L1,P1] - 30 y[6,L2,P2]
   - 50 y[6,L2,P3] - 10 y[7,L1,P1] - 30 y[7,L2,P2] - 50 y[7,L2,P3]
   - 10 y[8,L1,P1] - 30 y[8,L2,P2] - 50 y[8,L2,P3] - 10 y[9,L1,P1]
   - 30 y[9,L2,P2] - 50 y[9,L2,P3] - 10 y[10,L1,P1] - 30 y[10,L2,P2]
   - 50 y[10,L2,P3] + TC1 = 0
 R280: - 1500 w[0,L1,P1] - 1200 w[0,L2,P2] - 3000 w[0,L2,P3]
   - 1500 w[1,L1,P1] - 1200 w[1,L2,P2] - 3000 w[1,L2,P3] - 1500 w[2,L1,P1]
   - 1200 w[2,L2,P2] - 3000 w[2,L2,P3] - 1500 w[3,L1,P1] - 1200 w[3,L2,P2]
   - 3000 w[3,L2,P3] - 1500 w[4,L1,P1] - 1200 w[4,L2,P2] - 3000 w[4,L2,P3]
   - 1500 w[5,L1,P1] - 1200 w[5,L2,P2] - 3000 w[5,L2,P3] - 1500 w[6,L1,P1]
   - 1200 w[6,L2,P2] - 3000 w[6,L2,P3] - 1500 w[7,L1,P1] - 1200 w[7,L2,P2]
   - 3000 w[7,L2,P3] - 1500 w[8,L1,P1] - 1200 w[8,L2,P2] - 3000 w[8,L2,P3]
   - 1500 w[9,L1,P1] - 1200 w[9,L2,P2] - 3000 w[9,L2,P3] - 1500 w[10,L1,P1]
   - 1200 w[10,L2,P2] - 3000 w[10,L2,P3] + TC2 = 0
 R281: - 10 z[0,L1,P1] - 30 z[0,L2,P2] - 50 z[0,L2,P3] - 10 z[1,L1,P1]
   - 30 z[1,L2,P2] - 50 z[1,L2,P3] - 10 z[2,L1,P1] - 30 z[2,L2,P2]
   - 50 z[2,L2,P3] - 10 z[3,L1,P1] - 30 z[3,L2,P2] - 50 z[3,L2,P3]
   - 10 z[4,L1,P1] - 30 z[4,L2,P2] - 50 z[4,L2,P3] - 10 z[5,L1,P1]
   - 30 z[5,L2,P2] - 50 z[5,L2,P3] - 10 z[6,L1,P1] - 30 z[6,L2,P2]
   - 50 z[6,L2,P3] - 10 z[7,L1,P1] - 30 z[7,L2,P2] - 50 z[7,L2,P3]
   - 10 z[8,L1,P1] - 30 z[8,L2,P2] - 50 z[8,L2,P3] - 10 z[9,L1,P1]
   - 30 z[9,L2,P2] - 50 z[9,L2,P3] - 10 z[10,L1,P1] - 30 z[10,L2,P2]
   - 50 z[10,L2,P3] + TC3 = 0
 R282: - 1995 x[0,L1,P1] - 1596 x[0,L2,P2] - 3990 x[0,L2,P3]
   - 1995 x[1,L1,P1] - 1596 x[1,L2,P2] - 3990 x[1,L2,P3] - 1995 x[2,L1,P1]
   - 1596 x[2,L2,P2] - 3990 x[2,L2,P3] - 1995 x[3,L1,P1] - 1596 x[3,L2,P2]
   - 3990 x[3,L2,P3] - 1995 x[4,L1,P1] - 1596 x[4,L2,P2] - 3990 x[4,L2,P3]
   - 1995 x[5,L1,P1] - 1596 x[5,L2,P2] - 3990 x[5,L2,P3] - 1995 x[6,L1,P1]
   - 1596 x[6,L2,P2] - 3990 x[6,L2,P3] - 1995 x[7,L1,P1] - 1596 x[7,L2,P2]
   - 3990 x[7,L2,P3] - 1995 x[8,L1,P1] - 1596 x[8,L2,P2] - 3990 x[8,L2,P3]
   - 1995 x[9,L1,P1] - 1596 x[9,L2,P2] - 3990 x[9,L2,P3] - 1995 x[10,L1,P1]
   - 1596 x[10,L2,P2] - 3990 x[10,L2,P3] + TC4 = 0
Bounds
 TC1 >= 10
 TC2 >= 10
 TC3 >= 10
 TC4 >= 10
Binaries
 w[0,L1,P1] w[0,L2,P2] w[0,L2,P3] w[1,L1,P1] w[1,L2,P2] w[1,L2,P3]
 w[2,L1,P1] w[2,L2,P2] w[2,L2,P3] w[3,L1,P1] w[3,L2,P2] w[3,L2,P3]
 w[4,L1,P1] w[4,L2,P2] w[4,L2,P3] w[5,L1,P1] w[5,L2,P2] w[5,L2,P3]
 w[6,L1,P1] w[6,L2,P2] w[6,L2,P3] w[7,L1,P1] w[7,L2,P2] w[7,L2,P3]
 w[8,L1,P1] w[8,L2,P2] w[8,L2,P3] w[9,L1,P1] w[9,L2,P2] w[9,L2,P3]
 w[10,L1,P1] w[10,L2,P2] w[10,L2,P3] x[0,L1,P1] x[0,L2,P2] x[0,L2,P3]
 x[1,L1,P1] x[1,L2,P2] x[1,L2,P3] x[2,L1,P1] x[2,L2,P2] x[2,L2,P3]
 x[3,L1,P1] x[3,L2,P2] x[3,L2,P3] x[4,L1,P1] x[4,L2,P2] x[4,L2,P3]
 x[5,L1,P1] x[5,L2,P2] x[5,L2,P3] x[6,L1,P1] x[6,L2,P2] x[6,L2,P3]
 x[7,L1,P1] x[7,L2,P2] x[7,L2,P3] x[8,L1,P1] x[8,L2,P2] x[8,L2,P3]
 x[9,L1,P1] x[9,L2,P2] x[9,L2,P3] x[10,L1,P1] x[10,L2,P2] x[10,L2,P3]
Generals
 TC1 TC2 TC3 TC4
End
